NAME: ETSP
COMMENT: Generated by write_TSPLIB (R package TSP)
TYPE: TSP
DIMENSION: 1000
EDGE_WEIGHT_TYPE: EUC_2D
NODE_COORD_SECTION
1 0.000000e+00 0.000000e+00
2 1.000000e+01 0.000000e+00
3 2.000000e+01 0.000000e+00
4 3.000000e+01 0.000000e+00
5 4.000000e+01 0.000000e+00
6 5.000000e+01 0.000000e+00
7 6.000000e+01 0.000000e+00
8 7.000000e+01 0.000000e+00
9 8.000000e+01 0.000000e+00
10 9.000000e+01 0.000000e+00
11 1.000000e+02 0.000000e+00
12 1.100000e+02 0.000000e+00
13 1.200000e+02 0.000000e+00
14 1.300000e+02 0.000000e+00
15 1.400000e+02 0.000000e+00
16 1.500000e+02 0.000000e+00
17 1.600000e+02 0.000000e+00
18 1.700000e+02 0.000000e+00
19 1.800000e+02 0.000000e+00
20 1.900000e+02 0.000000e+00
21 2.000000e+02 0.000000e+00
22 2.100000e+02 0.000000e+00
23 2.200000e+02 0.000000e+00
24 2.300000e+02 0.000000e+00
25 2.400000e+02 0.000000e+00
26 0.000000e+00 1.000000e+01
27 1.000000e+01 1.000000e+01
28 2.000000e+01 1.000000e+01
29 3.000000e+01 1.000000e+01
30 4.000000e+01 1.000000e+01
31 5.000000e+01 1.000000e+01
32 6.000000e+01 1.000000e+01
33 7.000000e+01 1.000000e+01
34 8.000000e+01 1.000000e+01
35 9.000000e+01 1.000000e+01
36 1.000000e+02 1.000000e+01
37 1.100000e+02 1.000000e+01
38 1.200000e+02 1.000000e+01
39 1.300000e+02 1.000000e+01
40 1.400000e+02 1.000000e+01
41 1.500000e+02 1.000000e+01
42 1.600000e+02 1.000000e+01
43 1.700000e+02 1.000000e+01
44 1.800000e+02 1.000000e+01
45 1.900000e+02 1.000000e+01
46 2.000000e+02 1.000000e+01
47 2.100000e+02 1.000000e+01
48 2.200000e+02 1.000000e+01
49 2.300000e+02 1.000000e+01
50 2.400000e+02 1.000000e+01
51 0.000000e+00 2.000000e+01
52 1.000000e+01 2.000000e+01
53 2.000000e+01 2.000000e+01
54 3.000000e+01 2.000000e+01
55 4.000000e+01 2.000000e+01
56 5.000000e+01 2.000000e+01
57 6.000000e+01 2.000000e+01
58 7.000000e+01 2.000000e+01
59 8.000000e+01 2.000000e+01
60 9.000000e+01 2.000000e+01
61 1.000000e+02 2.000000e+01
62 1.100000e+02 2.000000e+01
63 1.200000e+02 2.000000e+01
64 1.300000e+02 2.000000e+01
65 1.400000e+02 2.000000e+01
66 1.500000e+02 2.000000e+01
67 1.600000e+02 2.000000e+01
68 1.700000e+02 2.000000e+01
69 1.800000e+02 2.000000e+01
70 1.900000e+02 2.000000e+01
71 2.000000e+02 2.000000e+01
72 2.100000e+02 2.000000e+01
73 2.200000e+02 2.000000e+01
74 2.300000e+02 2.000000e+01
75 2.400000e+02 2.000000e+01
76 0.000000e+00 3.000000e+01
77 1.000000e+01 3.000000e+01
78 2.000000e+01 3.000000e+01
79 3.000000e+01 3.000000e+01
80 4.000000e+01 3.000000e+01
81 5.000000e+01 3.000000e+01
82 6.000000e+01 3.000000e+01
83 7.000000e+01 3.000000e+01
84 8.000000e+01 3.000000e+01
85 9.000000e+01 3.000000e+01
86 1.000000e+02 3.000000e+01
87 1.100000e+02 3.000000e+01
88 1.200000e+02 3.000000e+01
89 1.300000e+02 3.000000e+01
90 1.400000e+02 3.000000e+01
91 1.500000e+02 3.000000e+01
92 1.600000e+02 3.000000e+01
93 1.700000e+02 3.000000e+01
94 1.800000e+02 3.000000e+01
95 1.900000e+02 3.000000e+01
96 2.000000e+02 3.000000e+01
97 2.100000e+02 3.000000e+01
98 2.200000e+02 3.000000e+01
99 2.300000e+02 3.000000e+01
100 2.400000e+02 3.000000e+01
101 0.000000e+00 4.000000e+01
102 1.000000e+01 4.000000e+01
103 2.000000e+01 4.000000e+01
104 3.000000e+01 4.000000e+01
105 4.000000e+01 4.000000e+01
106 5.000000e+01 4.000000e+01
107 6.000000e+01 4.000000e+01
108 7.000000e+01 4.000000e+01
109 8.000000e+01 4.000000e+01
110 9.000000e+01 4.000000e+01
111 1.000000e+02 4.000000e+01
112 1.100000e+02 4.000000e+01
113 1.200000e+02 4.000000e+01
114 1.300000e+02 4.000000e+01
115 1.400000e+02 4.000000e+01
116 1.500000e+02 4.000000e+01
117 1.600000e+02 4.000000e+01
118 1.700000e+02 4.000000e+01
119 1.800000e+02 4.000000e+01
120 1.900000e+02 4.000000e+01
121 2.000000e+02 4.000000e+01
122 2.100000e+02 4.000000e+01
123 2.200000e+02 4.000000e+01
124 2.300000e+02 4.000000e+01
125 2.400000e+02 4.000000e+01
126 0.000000e+00 5.000000e+01
127 1.000000e+01 5.000000e+01
128 2.000000e+01 5.000000e+01
129 3.000000e+01 5.000000e+01
130 4.000000e+01 5.000000e+01
131 5.000000e+01 5.000000e+01
132 6.000000e+01 5.000000e+01
133 7.000000e+01 5.000000e+01
134 8.000000e+01 5.000000e+01
135 9.000000e+01 5.000000e+01
136 1.000000e+02 5.000000e+01
137 1.100000e+02 5.000000e+01
138 1.200000e+02 5.000000e+01
139 1.300000e+02 5.000000e+01
140 1.400000e+02 5.000000e+01
141 1.500000e+02 5.000000e+01
142 1.600000e+02 5.000000e+01
143 1.700000e+02 5.000000e+01
144 1.800000e+02 5.000000e+01
145 1.900000e+02 5.000000e+01
146 2.000000e+02 5.000000e+01
147 2.100000e+02 5.000000e+01
148 2.200000e+02 5.000000e+01
149 2.300000e+02 5.000000e+01
150 2.400000e+02 5.000000e+01
151 0.000000e+00 6.000000e+01
152 1.000000e+01 6.000000e+01
153 2.000000e+01 6.000000e+01
154 3.000000e+01 6.000000e+01
155 4.000000e+01 6.000000e+01
156 5.000000e+01 6.000000e+01
157 6.000000e+01 6.000000e+01
158 7.000000e+01 6.000000e+01
159 8.000000e+01 6.000000e+01
160 9.000000e+01 6.000000e+01
161 1.000000e+02 6.000000e+01
162 1.100000e+02 6.000000e+01
163 1.200000e+02 6.000000e+01
164 1.300000e+02 6.000000e+01
165 1.400000e+02 6.000000e+01
166 1.500000e+02 6.000000e+01
167 1.600000e+02 6.000000e+01
168 1.700000e+02 6.000000e+01
169 1.800000e+02 6.000000e+01
170 1.900000e+02 6.000000e+01
171 2.000000e+02 6.000000e+01
172 2.100000e+02 6.000000e+01
173 2.200000e+02 6.000000e+01
174 2.300000e+02 6.000000e+01
175 2.400000e+02 6.000000e+01
176 0.000000e+00 7.000000e+01
177 1.000000e+01 7.000000e+01
178 2.000000e+01 7.000000e+01
179 3.000000e+01 7.000000e+01
180 4.000000e+01 7.000000e+01
181 5.000000e+01 7.000000e+01
182 6.000000e+01 7.000000e+01
183 7.000000e+01 7.000000e+01
184 8.000000e+01 7.000000e+01
185 9.000000e+01 7.000000e+01
186 1.000000e+02 7.000000e+01
187 1.100000e+02 7.000000e+01
188 1.200000e+02 7.000000e+01
189 1.300000e+02 7.000000e+01
190 1.400000e+02 7.000000e+01
191 1.500000e+02 7.000000e+01
192 1.600000e+02 7.000000e+01
193 1.700000e+02 7.000000e+01
194 1.800000e+02 7.000000e+01
195 1.900000e+02 7.000000e+01
196 2.000000e+02 7.000000e+01
197 2.100000e+02 7.000000e+01
198 2.200000e+02 7.000000e+01
199 2.300000e+02 7.000000e+01
200 2.400000e+02 7.000000e+01
201 0.000000e+00 8.000000e+01
202 1.000000e+01 8.000000e+01
203 2.000000e+01 8.000000e+01
204 3.000000e+01 8.000000e+01
205 4.000000e+01 8.000000e+01
206 5.000000e+01 8.000000e+01
207 6.000000e+01 8.000000e+01
208 7.000000e+01 8.000000e+01
209 8.000000e+01 8.000000e+01
210 9.000000e+01 8.000000e+01
211 1.000000e+02 8.000000e+01
212 1.100000e+02 8.000000e+01
213 1.200000e+02 8.000000e+01
214 1.300000e+02 8.000000e+01
215 1.400000e+02 8.000000e+01
216 1.500000e+02 8.000000e+01
217 1.600000e+02 8.000000e+01
218 1.700000e+02 8.000000e+01
219 1.800000e+02 8.000000e+01
220 1.900000e+02 8.000000e+01
221 2.000000e+02 8.000000e+01
222 2.100000e+02 8.000000e+01
223 2.200000e+02 8.000000e+01
224 2.300000e+02 8.000000e+01
225 2.400000e+02 8.000000e+01
226 0.000000e+00 9.000000e+01
227 1.000000e+01 9.000000e+01
228 2.000000e+01 9.000000e+01
229 3.000000e+01 9.000000e+01
230 4.000000e+01 9.000000e+01
231 5.000000e+01 9.000000e+01
232 6.000000e+01 9.000000e+01
233 7.000000e+01 9.000000e+01
234 8.000000e+01 9.000000e+01
235 9.000000e+01 9.000000e+01
236 1.000000e+02 9.000000e+01
237 1.100000e+02 9.000000e+01
238 1.200000e+02 9.000000e+01
239 1.300000e+02 9.000000e+01
240 1.400000e+02 9.000000e+01
241 1.500000e+02 9.000000e+01
242 1.600000e+02 9.000000e+01
243 1.700000e+02 9.000000e+01
244 1.800000e+02 9.000000e+01
245 1.900000e+02 9.000000e+01
246 2.000000e+02 9.000000e+01
247 2.100000e+02 9.000000e+01
248 2.200000e+02 9.000000e+01
249 2.300000e+02 9.000000e+01
250 2.400000e+02 9.000000e+01
251 0.000000e+00 1.000000e+02
252 1.000000e+01 1.000000e+02
253 2.000000e+01 1.000000e+02
254 3.000000e+01 1.000000e+02
255 4.000000e+01 1.000000e+02
256 5.000000e+01 1.000000e+02
257 6.000000e+01 1.000000e+02
258 7.000000e+01 1.000000e+02
259 8.000000e+01 1.000000e+02
260 9.000000e+01 1.000000e+02
261 1.000000e+02 1.000000e+02
262 1.100000e+02 1.000000e+02
263 1.200000e+02 1.000000e+02
264 1.300000e+02 1.000000e+02
265 1.400000e+02 1.000000e+02
266 1.500000e+02 1.000000e+02
267 1.600000e+02 1.000000e+02
268 1.700000e+02 1.000000e+02
269 1.800000e+02 1.000000e+02
270 1.900000e+02 1.000000e+02
271 2.000000e+02 1.000000e+02
272 2.100000e+02 1.000000e+02
273 2.200000e+02 1.000000e+02
274 2.300000e+02 1.000000e+02
275 2.400000e+02 1.000000e+02
276 0.000000e+00 1.100000e+02
277 1.000000e+01 1.100000e+02
278 2.000000e+01 1.100000e+02
279 3.000000e+01 1.100000e+02
280 4.000000e+01 1.100000e+02
281 5.000000e+01 1.100000e+02
282 6.000000e+01 1.100000e+02
283 7.000000e+01 1.100000e+02
284 8.000000e+01 1.100000e+02
285 9.000000e+01 1.100000e+02
286 1.000000e+02 1.100000e+02
287 1.100000e+02 1.100000e+02
288 1.200000e+02 1.100000e+02
289 1.300000e+02 1.100000e+02
290 1.400000e+02 1.100000e+02
291 1.500000e+02 1.100000e+02
292 1.600000e+02 1.100000e+02
293 1.700000e+02 1.100000e+02
294 1.800000e+02 1.100000e+02
295 1.900000e+02 1.100000e+02
296 2.000000e+02 1.100000e+02
297 2.100000e+02 1.100000e+02
298 2.200000e+02 1.100000e+02
299 2.300000e+02 1.100000e+02
300 2.400000e+02 1.100000e+02
301 0.000000e+00 1.200000e+02
302 1.000000e+01 1.200000e+02
303 2.000000e+01 1.200000e+02
304 3.000000e+01 1.200000e+02
305 4.000000e+01 1.200000e+02
306 5.000000e+01 1.200000e+02
307 6.000000e+01 1.200000e+02
308 7.000000e+01 1.200000e+02
309 8.000000e+01 1.200000e+02
310 9.000000e+01 1.200000e+02
311 1.000000e+02 1.200000e+02
312 1.100000e+02 1.200000e+02
313 1.200000e+02 1.200000e+02
314 1.300000e+02 1.200000e+02
315 1.400000e+02 1.200000e+02
316 1.500000e+02 1.200000e+02
317 1.600000e+02 1.200000e+02
318 1.700000e+02 1.200000e+02
319 1.800000e+02 1.200000e+02
320 1.900000e+02 1.200000e+02
321 2.000000e+02 1.200000e+02
322 2.100000e+02 1.200000e+02
323 2.200000e+02 1.200000e+02
324 2.300000e+02 1.200000e+02
325 2.400000e+02 1.200000e+02
326 0.000000e+00 1.300000e+02
327 1.000000e+01 1.300000e+02
328 2.000000e+01 1.300000e+02
329 3.000000e+01 1.300000e+02
330 4.000000e+01 1.300000e+02
331 5.000000e+01 1.300000e+02
332 6.000000e+01 1.300000e+02
333 7.000000e+01 1.300000e+02
334 8.000000e+01 1.300000e+02
335 9.000000e+01 1.300000e+02
336 1.000000e+02 1.300000e+02
337 1.100000e+02 1.300000e+02
338 1.200000e+02 1.300000e+02
339 1.300000e+02 1.300000e+02
340 1.400000e+02 1.300000e+02
341 1.500000e+02 1.300000e+02
342 1.600000e+02 1.300000e+02
343 1.700000e+02 1.300000e+02
344 1.800000e+02 1.300000e+02
345 1.900000e+02 1.300000e+02
346 2.000000e+02 1.300000e+02
347 2.100000e+02 1.300000e+02
348 2.200000e+02 1.300000e+02
349 2.300000e+02 1.300000e+02
350 2.400000e+02 1.300000e+02
351 0.000000e+00 1.400000e+02
352 1.000000e+01 1.400000e+02
353 2.000000e+01 1.400000e+02
354 3.000000e+01 1.400000e+02
355 4.000000e+01 1.400000e+02
356 5.000000e+01 1.400000e+02
357 6.000000e+01 1.400000e+02
358 7.000000e+01 1.400000e+02
359 8.000000e+01 1.400000e+02
360 9.000000e+01 1.400000e+02
361 1.000000e+02 1.400000e+02
362 1.100000e+02 1.400000e+02
363 1.200000e+02 1.400000e+02
364 1.300000e+02 1.400000e+02
365 1.400000e+02 1.400000e+02
366 1.500000e+02 1.400000e+02
367 1.600000e+02 1.400000e+02
368 1.700000e+02 1.400000e+02
369 1.800000e+02 1.400000e+02
370 1.900000e+02 1.400000e+02
371 2.000000e+02 1.400000e+02
372 2.100000e+02 1.400000e+02
373 2.200000e+02 1.400000e+02
374 2.300000e+02 1.400000e+02
375 2.400000e+02 1.400000e+02
376 0.000000e+00 1.500000e+02
377 1.000000e+01 1.500000e+02
378 2.000000e+01 1.500000e+02
379 3.000000e+01 1.500000e+02
380 4.000000e+01 1.500000e+02
381 5.000000e+01 1.500000e+02
382 6.000000e+01 1.500000e+02
383 7.000000e+01 1.500000e+02
384 8.000000e+01 1.500000e+02
385 9.000000e+01 1.500000e+02
386 1.000000e+02 1.500000e+02
387 1.100000e+02 1.500000e+02
388 1.200000e+02 1.500000e+02
389 1.300000e+02 1.500000e+02
390 1.400000e+02 1.500000e+02
391 1.500000e+02 1.500000e+02
392 1.600000e+02 1.500000e+02
393 1.700000e+02 1.500000e+02
394 1.800000e+02 1.500000e+02
395 1.900000e+02 1.500000e+02
396 2.000000e+02 1.500000e+02
397 2.100000e+02 1.500000e+02
398 2.200000e+02 1.500000e+02
399 2.300000e+02 1.500000e+02
400 2.400000e+02 1.500000e+02
401 0.000000e+00 1.600000e+02
402 1.000000e+01 1.600000e+02
403 2.000000e+01 1.600000e+02
404 3.000000e+01 1.600000e+02
405 4.000000e+01 1.600000e+02
406 5.000000e+01 1.600000e+02
407 6.000000e+01 1.600000e+02
408 7.000000e+01 1.600000e+02
409 8.000000e+01 1.600000e+02
410 9.000000e+01 1.600000e+02
411 1.000000e+02 1.600000e+02
412 1.100000e+02 1.600000e+02
413 1.200000e+02 1.600000e+02
414 1.300000e+02 1.600000e+02
415 1.400000e+02 1.600000e+02
416 1.500000e+02 1.600000e+02
417 1.600000e+02 1.600000e+02
418 1.700000e+02 1.600000e+02
419 1.800000e+02 1.600000e+02
420 1.900000e+02 1.600000e+02
421 2.000000e+02 1.600000e+02
422 2.100000e+02 1.600000e+02
423 2.200000e+02 1.600000e+02
424 2.300000e+02 1.600000e+02
425 2.400000e+02 1.600000e+02
426 0.000000e+00 1.700000e+02
427 1.000000e+01 1.700000e+02
428 2.000000e+01 1.700000e+02
429 3.000000e+01 1.700000e+02
430 4.000000e+01 1.700000e+02
431 5.000000e+01 1.700000e+02
432 6.000000e+01 1.700000e+02
433 7.000000e+01 1.700000e+02
434 8.000000e+01 1.700000e+02
435 9.000000e+01 1.700000e+02
436 1.000000e+02 1.700000e+02
437 1.100000e+02 1.700000e+02
438 1.200000e+02 1.700000e+02
439 1.300000e+02 1.700000e+02
440 1.400000e+02 1.700000e+02
441 1.500000e+02 1.700000e+02
442 1.600000e+02 1.700000e+02
443 1.700000e+02 1.700000e+02
444 1.800000e+02 1.700000e+02
445 1.900000e+02 1.700000e+02
446 2.000000e+02 1.700000e+02
447 2.100000e+02 1.700000e+02
448 2.200000e+02 1.700000e+02
449 2.300000e+02 1.700000e+02
450 2.400000e+02 1.700000e+02
451 0.000000e+00 1.800000e+02
452 1.000000e+01 1.800000e+02
453 2.000000e+01 1.800000e+02
454 3.000000e+01 1.800000e+02
455 4.000000e+01 1.800000e+02
456 5.000000e+01 1.800000e+02
457 6.000000e+01 1.800000e+02
458 7.000000e+01 1.800000e+02
459 8.000000e+01 1.800000e+02
460 9.000000e+01 1.800000e+02
461 1.000000e+02 1.800000e+02
462 1.100000e+02 1.800000e+02
463 1.200000e+02 1.800000e+02
464 1.300000e+02 1.800000e+02
465 1.400000e+02 1.800000e+02
466 1.500000e+02 1.800000e+02
467 1.600000e+02 1.800000e+02
468 1.700000e+02 1.800000e+02
469 1.800000e+02 1.800000e+02
470 1.900000e+02 1.800000e+02
471 2.000000e+02 1.800000e+02
472 2.100000e+02 1.800000e+02
473 2.200000e+02 1.800000e+02
474 2.300000e+02 1.800000e+02
475 2.400000e+02 1.800000e+02
476 0.000000e+00 1.900000e+02
477 1.000000e+01 1.900000e+02
478 2.000000e+01 1.900000e+02
479 3.000000e+01 1.900000e+02
480 4.000000e+01 1.900000e+02
481 5.000000e+01 1.900000e+02
482 6.000000e+01 1.900000e+02
483 7.000000e+01 1.900000e+02
484 8.000000e+01 1.900000e+02
485 9.000000e+01 1.900000e+02
486 1.000000e+02 1.900000e+02
487 1.100000e+02 1.900000e+02
488 1.200000e+02 1.900000e+02
489 1.300000e+02 1.900000e+02
490 1.400000e+02 1.900000e+02
491 1.500000e+02 1.900000e+02
492 1.600000e+02 1.900000e+02
493 1.700000e+02 1.900000e+02
494 1.800000e+02 1.900000e+02
495 1.900000e+02 1.900000e+02
496 2.000000e+02 1.900000e+02
497 2.100000e+02 1.900000e+02
498 2.200000e+02 1.900000e+02
499 2.300000e+02 1.900000e+02
500 2.400000e+02 1.900000e+02
501 0.000000e+00 2.000000e+02
502 1.000000e+01 2.000000e+02
503 2.000000e+01 2.000000e+02
504 3.000000e+01 2.000000e+02
505 4.000000e+01 2.000000e+02
506 5.000000e+01 2.000000e+02
507 6.000000e+01 2.000000e+02
508 7.000000e+01 2.000000e+02
509 8.000000e+01 2.000000e+02
510 9.000000e+01 2.000000e+02
511 1.000000e+02 2.000000e+02
512 1.100000e+02 2.000000e+02
513 1.200000e+02 2.000000e+02
514 1.300000e+02 2.000000e+02
515 1.400000e+02 2.000000e+02
516 1.500000e+02 2.000000e+02
517 1.600000e+02 2.000000e+02
518 1.700000e+02 2.000000e+02
519 1.800000e+02 2.000000e+02
520 1.900000e+02 2.000000e+02
521 2.000000e+02 2.000000e+02
522 2.100000e+02 2.000000e+02
523 2.200000e+02 2.000000e+02
524 2.300000e+02 2.000000e+02
525 2.400000e+02 2.000000e+02
526 0.000000e+00 2.100000e+02
527 1.000000e+01 2.100000e+02
528 2.000000e+01 2.100000e+02
529 3.000000e+01 2.100000e+02
530 4.000000e+01 2.100000e+02
531 5.000000e+01 2.100000e+02
532 6.000000e+01 2.100000e+02
533 7.000000e+01 2.100000e+02
534 8.000000e+01 2.100000e+02
535 9.000000e+01 2.100000e+02
536 1.000000e+02 2.100000e+02
537 1.100000e+02 2.100000e+02
538 1.200000e+02 2.100000e+02
539 1.300000e+02 2.100000e+02
540 1.400000e+02 2.100000e+02
541 1.500000e+02 2.100000e+02
542 1.600000e+02 2.100000e+02
543 1.700000e+02 2.100000e+02
544 1.800000e+02 2.100000e+02
545 1.900000e+02 2.100000e+02
546 2.000000e+02 2.100000e+02
547 2.100000e+02 2.100000e+02
548 2.200000e+02 2.100000e+02
549 2.300000e+02 2.100000e+02
550 2.400000e+02 2.100000e+02
551 0.000000e+00 2.200000e+02
552 1.000000e+01 2.200000e+02
553 2.000000e+01 2.200000e+02
554 3.000000e+01 2.200000e+02
555 4.000000e+01 2.200000e+02
556 5.000000e+01 2.200000e+02
557 6.000000e+01 2.200000e+02
558 7.000000e+01 2.200000e+02
559 8.000000e+01 2.200000e+02
560 9.000000e+01 2.200000e+02
561 1.000000e+02 2.200000e+02
562 1.100000e+02 2.200000e+02
563 1.200000e+02 2.200000e+02
564 1.300000e+02 2.200000e+02
565 1.400000e+02 2.200000e+02
566 1.500000e+02 2.200000e+02
567 1.600000e+02 2.200000e+02
568 1.700000e+02 2.200000e+02
569 1.800000e+02 2.200000e+02
570 1.900000e+02 2.200000e+02
571 2.000000e+02 2.200000e+02
572 2.100000e+02 2.200000e+02
573 2.200000e+02 2.200000e+02
574 2.300000e+02 2.200000e+02
575 2.400000e+02 2.200000e+02
576 0.000000e+00 2.300000e+02
577 1.000000e+01 2.300000e+02
578 2.000000e+01 2.300000e+02
579 3.000000e+01 2.300000e+02
580 4.000000e+01 2.300000e+02
581 5.000000e+01 2.300000e+02
582 6.000000e+01 2.300000e+02
583 7.000000e+01 2.300000e+02
584 8.000000e+01 2.300000e+02
585 9.000000e+01 2.300000e+02
586 1.000000e+02 2.300000e+02
587 1.100000e+02 2.300000e+02
588 1.200000e+02 2.300000e+02
589 1.300000e+02 2.300000e+02
590 1.400000e+02 2.300000e+02
591 1.500000e+02 2.300000e+02
592 1.600000e+02 2.300000e+02
593 1.700000e+02 2.300000e+02
594 1.800000e+02 2.300000e+02
595 1.900000e+02 2.300000e+02
596 2.000000e+02 2.300000e+02
597 2.100000e+02 2.300000e+02
598 2.200000e+02 2.300000e+02
599 2.300000e+02 2.300000e+02
600 2.400000e+02 2.300000e+02
601 0.000000e+00 2.400000e+02
602 1.000000e+01 2.400000e+02
603 2.000000e+01 2.400000e+02
604 3.000000e+01 2.400000e+02
605 4.000000e+01 2.400000e+02
606 5.000000e+01 2.400000e+02
607 6.000000e+01 2.400000e+02
608 7.000000e+01 2.400000e+02
609 8.000000e+01 2.400000e+02
610 9.000000e+01 2.400000e+02
611 1.000000e+02 2.400000e+02
612 1.100000e+02 2.400000e+02
613 1.200000e+02 2.400000e+02
614 1.300000e+02 2.400000e+02
615 1.400000e+02 2.400000e+02
616 1.500000e+02 2.400000e+02
617 1.600000e+02 2.400000e+02
618 1.700000e+02 2.400000e+02
619 1.800000e+02 2.400000e+02
620 1.900000e+02 2.400000e+02
621 2.000000e+02 2.400000e+02
622 2.100000e+02 2.400000e+02
623 2.200000e+02 2.400000e+02
624 2.300000e+02 2.400000e+02
625 2.400000e+02 2.400000e+02
626 0.000000e+00 2.500000e+02
627 1.000000e+01 2.500000e+02
628 2.000000e+01 2.500000e+02
629 3.000000e+01 2.500000e+02
630 4.000000e+01 2.500000e+02
631 5.000000e+01 2.500000e+02
632 6.000000e+01 2.500000e+02
633 7.000000e+01 2.500000e+02
634 8.000000e+01 2.500000e+02
635 9.000000e+01 2.500000e+02
636 1.000000e+02 2.500000e+02
637 1.100000e+02 2.500000e+02
638 1.200000e+02 2.500000e+02
639 1.300000e+02 2.500000e+02
640 1.400000e+02 2.500000e+02
641 1.500000e+02 2.500000e+02
642 1.600000e+02 2.500000e+02
643 1.700000e+02 2.500000e+02
644 1.800000e+02 2.500000e+02
645 1.900000e+02 2.500000e+02
646 2.000000e+02 2.500000e+02
647 2.100000e+02 2.500000e+02
648 2.200000e+02 2.500000e+02
649 2.300000e+02 2.500000e+02
650 2.400000e+02 2.500000e+02
651 0.000000e+00 2.600000e+02
652 1.000000e+01 2.600000e+02
653 2.000000e+01 2.600000e+02
654 3.000000e+01 2.600000e+02
655 4.000000e+01 2.600000e+02
656 5.000000e+01 2.600000e+02
657 6.000000e+01 2.600000e+02
658 7.000000e+01 2.600000e+02
659 8.000000e+01 2.600000e+02
660 9.000000e+01 2.600000e+02
661 1.000000e+02 2.600000e+02
662 1.100000e+02 2.600000e+02
663 1.200000e+02 2.600000e+02
664 1.300000e+02 2.600000e+02
665 1.400000e+02 2.600000e+02
666 1.500000e+02 2.600000e+02
667 1.600000e+02 2.600000e+02
668 1.700000e+02 2.600000e+02
669 1.800000e+02 2.600000e+02
670 1.900000e+02 2.600000e+02
671 2.000000e+02 2.600000e+02
672 2.100000e+02 2.600000e+02
673 2.200000e+02 2.600000e+02
674 2.300000e+02 2.600000e+02
675 2.400000e+02 2.600000e+02
676 0.000000e+00 2.700000e+02
677 1.000000e+01 2.700000e+02
678 2.000000e+01 2.700000e+02
679 3.000000e+01 2.700000e+02
680 4.000000e+01 2.700000e+02
681 5.000000e+01 2.700000e+02
682 6.000000e+01 2.700000e+02
683 7.000000e+01 2.700000e+02
684 8.000000e+01 2.700000e+02
685 9.000000e+01 2.700000e+02
686 1.000000e+02 2.700000e+02
687 1.100000e+02 2.700000e+02
688 1.200000e+02 2.700000e+02
689 1.300000e+02 2.700000e+02
690 1.400000e+02 2.700000e+02
691 1.500000e+02 2.700000e+02
692 1.600000e+02 2.700000e+02
693 1.700000e+02 2.700000e+02
694 1.800000e+02 2.700000e+02
695 1.900000e+02 2.700000e+02
696 2.000000e+02 2.700000e+02
697 2.100000e+02 2.700000e+02
698 2.200000e+02 2.700000e+02
699 2.300000e+02 2.700000e+02
700 2.400000e+02 2.700000e+02
701 0.000000e+00 2.800000e+02
702 1.000000e+01 2.800000e+02
703 2.000000e+01 2.800000e+02
704 3.000000e+01 2.800000e+02
705 4.000000e+01 2.800000e+02
706 5.000000e+01 2.800000e+02
707 6.000000e+01 2.800000e+02
708 7.000000e+01 2.800000e+02
709 8.000000e+01 2.800000e+02
710 9.000000e+01 2.800000e+02
711 1.000000e+02 2.800000e+02
712 1.100000e+02 2.800000e+02
713 1.200000e+02 2.800000e+02
714 1.300000e+02 2.800000e+02
715 1.400000e+02 2.800000e+02
716 1.500000e+02 2.800000e+02
717 1.600000e+02 2.800000e+02
718 1.700000e+02 2.800000e+02
719 1.800000e+02 2.800000e+02
720 1.900000e+02 2.800000e+02
721 2.000000e+02 2.800000e+02
722 2.100000e+02 2.800000e+02
723 2.200000e+02 2.800000e+02
724 2.300000e+02 2.800000e+02
725 2.400000e+02 2.800000e+02
726 0.000000e+00 2.900000e+02
727 1.000000e+01 2.900000e+02
728 2.000000e+01 2.900000e+02
729 3.000000e+01 2.900000e+02
730 4.000000e+01 2.900000e+02
731 5.000000e+01 2.900000e+02
732 6.000000e+01 2.900000e+02
733 7.000000e+01 2.900000e+02
734 8.000000e+01 2.900000e+02
735 9.000000e+01 2.900000e+02
736 1.000000e+02 2.900000e+02
737 1.100000e+02 2.900000e+02
738 1.200000e+02 2.900000e+02
739 1.300000e+02 2.900000e+02
740 1.400000e+02 2.900000e+02
741 1.500000e+02 2.900000e+02
742 1.600000e+02 2.900000e+02
743 1.700000e+02 2.900000e+02
744 1.800000e+02 2.900000e+02
745 1.900000e+02 2.900000e+02
746 2.000000e+02 2.900000e+02
747 2.100000e+02 2.900000e+02
748 2.200000e+02 2.900000e+02
749 2.300000e+02 2.900000e+02
750 2.400000e+02 2.900000e+02
751 0.000000e+00 3.000000e+02
752 1.000000e+01 3.000000e+02
753 2.000000e+01 3.000000e+02
754 3.000000e+01 3.000000e+02
755 4.000000e+01 3.000000e+02
756 5.000000e+01 3.000000e+02
757 6.000000e+01 3.000000e+02
758 7.000000e+01 3.000000e+02
759 8.000000e+01 3.000000e+02
760 9.000000e+01 3.000000e+02
761 1.000000e+02 3.000000e+02
762 1.100000e+02 3.000000e+02
763 1.200000e+02 3.000000e+02
764 1.300000e+02 3.000000e+02
765 1.400000e+02 3.000000e+02
766 1.500000e+02 3.000000e+02
767 1.600000e+02 3.000000e+02
768 1.700000e+02 3.000000e+02
769 1.800000e+02 3.000000e+02
770 1.900000e+02 3.000000e+02
771 2.000000e+02 3.000000e+02
772 2.100000e+02 3.000000e+02
773 2.200000e+02 3.000000e+02
774 2.300000e+02 3.000000e+02
775 2.400000e+02 3.000000e+02
776 0.000000e+00 3.100000e+02
777 1.000000e+01 3.100000e+02
778 2.000000e+01 3.100000e+02
779 3.000000e+01 3.100000e+02
780 4.000000e+01 3.100000e+02
781 5.000000e+01 3.100000e+02
782 6.000000e+01 3.100000e+02
783 7.000000e+01 3.100000e+02
784 8.000000e+01 3.100000e+02
785 9.000000e+01 3.100000e+02
786 1.000000e+02 3.100000e+02
787 1.100000e+02 3.100000e+02
788 1.200000e+02 3.100000e+02
789 1.300000e+02 3.100000e+02
790 1.400000e+02 3.100000e+02
791 1.500000e+02 3.100000e+02
792 1.600000e+02 3.100000e+02
793 1.700000e+02 3.100000e+02
794 1.800000e+02 3.100000e+02
795 1.900000e+02 3.100000e+02
796 2.000000e+02 3.100000e+02
797 2.100000e+02 3.100000e+02
798 2.200000e+02 3.100000e+02
799 2.300000e+02 3.100000e+02
800 2.400000e+02 3.100000e+02
801 0.000000e+00 3.200000e+02
802 1.000000e+01 3.200000e+02
803 2.000000e+01 3.200000e+02
804 3.000000e+01 3.200000e+02
805 4.000000e+01 3.200000e+02
806 5.000000e+01 3.200000e+02
807 6.000000e+01 3.200000e+02
808 7.000000e+01 3.200000e+02
809 8.000000e+01 3.200000e+02
810 9.000000e+01 3.200000e+02
811 1.000000e+02 3.200000e+02
812 1.100000e+02 3.200000e+02
813 1.200000e+02 3.200000e+02
814 1.300000e+02 3.200000e+02
815 1.400000e+02 3.200000e+02
816 1.500000e+02 3.200000e+02
817 1.600000e+02 3.200000e+02
818 1.700000e+02 3.200000e+02
819 1.800000e+02 3.200000e+02
820 1.900000e+02 3.200000e+02
821 2.000000e+02 3.200000e+02
822 2.100000e+02 3.200000e+02
823 2.200000e+02 3.200000e+02
824 2.300000e+02 3.200000e+02
825 2.400000e+02 3.200000e+02
826 0.000000e+00 3.300000e+02
827 1.000000e+01 3.300000e+02
828 2.000000e+01 3.300000e+02
829 3.000000e+01 3.300000e+02
830 4.000000e+01 3.300000e+02
831 5.000000e+01 3.300000e+02
832 6.000000e+01 3.300000e+02
833 7.000000e+01 3.300000e+02
834 8.000000e+01 3.300000e+02
835 9.000000e+01 3.300000e+02
836 1.000000e+02 3.300000e+02
837 1.100000e+02 3.300000e+02
838 1.200000e+02 3.300000e+02
839 1.300000e+02 3.300000e+02
840 1.400000e+02 3.300000e+02
841 1.500000e+02 3.300000e+02
842 1.600000e+02 3.300000e+02
843 1.700000e+02 3.300000e+02
844 1.800000e+02 3.300000e+02
845 1.900000e+02 3.300000e+02
846 2.000000e+02 3.300000e+02
847 2.100000e+02 3.300000e+02
848 2.200000e+02 3.300000e+02
849 2.300000e+02 3.300000e+02
850 2.400000e+02 3.300000e+02
851 0.000000e+00 3.400000e+02
852 1.000000e+01 3.400000e+02
853 2.000000e+01 3.400000e+02
854 3.000000e+01 3.400000e+02
855 4.000000e+01 3.400000e+02
856 5.000000e+01 3.400000e+02
857 6.000000e+01 3.400000e+02
858 7.000000e+01 3.400000e+02
859 8.000000e+01 3.400000e+02
860 9.000000e+01 3.400000e+02
861 1.000000e+02 3.400000e+02
862 1.100000e+02 3.400000e+02
863 1.200000e+02 3.400000e+02
864 1.300000e+02 3.400000e+02
865 1.400000e+02 3.400000e+02
866 1.500000e+02 3.400000e+02
867 1.600000e+02 3.400000e+02
868 1.700000e+02 3.400000e+02
869 1.800000e+02 3.400000e+02
870 1.900000e+02 3.400000e+02
871 2.000000e+02 3.400000e+02
872 2.100000e+02 3.400000e+02
873 2.200000e+02 3.400000e+02
874 2.300000e+02 3.400000e+02
875 2.400000e+02 3.400000e+02
876 0.000000e+00 3.500000e+02
877 1.000000e+01 3.500000e+02
878 2.000000e+01 3.500000e+02
879 3.000000e+01 3.500000e+02
880 4.000000e+01 3.500000e+02
881 5.000000e+01 3.500000e+02
882 6.000000e+01 3.500000e+02
883 7.000000e+01 3.500000e+02
884 8.000000e+01 3.500000e+02
885 9.000000e+01 3.500000e+02
886 1.000000e+02 3.500000e+02
887 1.100000e+02 3.500000e+02
888 1.200000e+02 3.500000e+02
889 1.300000e+02 3.500000e+02
890 1.400000e+02 3.500000e+02
891 1.500000e+02 3.500000e+02
892 1.600000e+02 3.500000e+02
893 1.700000e+02 3.500000e+02
894 1.800000e+02 3.500000e+02
895 1.900000e+02 3.500000e+02
896 2.000000e+02 3.500000e+02
897 2.100000e+02 3.500000e+02
898 2.200000e+02 3.500000e+02
899 2.300000e+02 3.500000e+02
900 2.400000e+02 3.500000e+02
901 0.000000e+00 3.600000e+02
902 1.000000e+01 3.600000e+02
903 2.000000e+01 3.600000e+02
904 3.000000e+01 3.600000e+02
905 4.000000e+01 3.600000e+02
906 5.000000e+01 3.600000e+02
907 6.000000e+01 3.600000e+02
908 7.000000e+01 3.600000e+02
909 8.000000e+01 3.600000e+02
910 9.000000e+01 3.600000e+02
911 1.000000e+02 3.600000e+02
912 1.100000e+02 3.600000e+02
913 1.200000e+02 3.600000e+02
914 1.300000e+02 3.600000e+02
915 1.400000e+02 3.600000e+02
916 1.500000e+02 3.600000e+02
917 1.600000e+02 3.600000e+02
918 1.700000e+02 3.600000e+02
919 1.800000e+02 3.600000e+02
920 1.900000e+02 3.600000e+02
921 2.000000e+02 3.600000e+02
922 2.100000e+02 3.600000e+02
923 2.200000e+02 3.600000e+02
924 2.300000e+02 3.600000e+02
925 2.400000e+02 3.600000e+02
926 0.000000e+00 3.700000e+02
927 1.000000e+01 3.700000e+02
928 2.000000e+01 3.700000e+02
929 3.000000e+01 3.700000e+02
930 4.000000e+01 3.700000e+02
931 5.000000e+01 3.700000e+02
932 6.000000e+01 3.700000e+02
933 7.000000e+01 3.700000e+02
934 8.000000e+01 3.700000e+02
935 9.000000e+01 3.700000e+02
936 1.000000e+02 3.700000e+02
937 1.100000e+02 3.700000e+02
938 1.200000e+02 3.700000e+02
939 1.300000e+02 3.700000e+02
940 1.400000e+02 3.700000e+02
941 1.500000e+02 3.700000e+02
942 1.600000e+02 3.700000e+02
943 1.700000e+02 3.700000e+02
944 1.800000e+02 3.700000e+02
945 1.900000e+02 3.700000e+02
946 2.000000e+02 3.700000e+02
947 2.100000e+02 3.700000e+02
948 2.200000e+02 3.700000e+02
949 2.300000e+02 3.700000e+02
950 2.400000e+02 3.700000e+02
951 0.000000e+00 3.800000e+02
952 1.000000e+01 3.800000e+02
953 2.000000e+01 3.800000e+02
954 3.000000e+01 3.800000e+02
955 4.000000e+01 3.800000e+02
956 5.000000e+01 3.800000e+02
957 6.000000e+01 3.800000e+02
958 7.000000e+01 3.800000e+02
959 8.000000e+01 3.800000e+02
960 9.000000e+01 3.800000e+02
961 1.000000e+02 3.800000e+02
962 1.100000e+02 3.800000e+02
963 1.200000e+02 3.800000e+02
964 1.300000e+02 3.800000e+02
965 1.400000e+02 3.800000e+02
966 1.500000e+02 3.800000e+02
967 1.600000e+02 3.800000e+02
968 1.700000e+02 3.800000e+02
969 1.800000e+02 3.800000e+02
970 1.900000e+02 3.800000e+02
971 2.000000e+02 3.800000e+02
972 2.100000e+02 3.800000e+02
973 2.200000e+02 3.800000e+02
974 2.300000e+02 3.800000e+02
975 2.400000e+02 3.800000e+02
976 0.000000e+00 3.900000e+02
977 1.000000e+01 3.900000e+02
978 2.000000e+01 3.900000e+02
979 3.000000e+01 3.900000e+02
980 4.000000e+01 3.900000e+02
981 5.000000e+01 3.900000e+02
982 6.000000e+01 3.900000e+02
983 7.000000e+01 3.900000e+02
984 8.000000e+01 3.900000e+02
985 9.000000e+01 3.900000e+02
986 1.000000e+02 3.900000e+02
987 1.100000e+02 3.900000e+02
988 1.200000e+02 3.900000e+02
989 1.300000e+02 3.900000e+02
990 1.400000e+02 3.900000e+02
991 1.500000e+02 3.900000e+02
992 1.600000e+02 3.900000e+02
993 1.700000e+02 3.900000e+02
994 1.800000e+02 3.900000e+02
995 1.900000e+02 3.900000e+02
996 2.000000e+02 3.900000e+02
997 2.100000e+02 3.900000e+02
998 2.200000e+02 3.900000e+02
999 2.300000e+02 3.900000e+02
1000 2.400000e+02 3.900000e+02
EOF
